
  18    0


   0  11 2 3 4 5 6 7 8 9 15 16 17 
   7   3 14 13 10 
   8   2 13 10 
   7   2 12 10 
   9   1 12 
   3   1 11 
   8   1 11 
   3   1 11 
   6   1 10 
   8   1 18
  10   1 18
   9   1 18
   1   1 18
   2   1 18
   3   1 18
   6   1 18
   5   1 18
   0   0 
